20 40
3 6 11 13 14
19
9 12 13
0 6 9 16
8 12 14 16 19
15 17
0 3 15
13 14 15 16
4 10 16
2 3 10 14 15
8 9 13 14 17 19
0
2 4 13 14 16
0 2 7 10 12 18
0 4 7 9 10 12
5 6 7 9 17
3 4 7 8 12 18 19
5 10 15
13 16
1 4 10 16
